computational_data/solutions/ER_n40_p035_s1.sol
Optimal - objective value 7.00000000
      5 r_5                         1                       1
      9 r_9                         1                       1
     28 r_28                        1                       1
     31 r_31                        1                       1
     43 b_3                         1                       1
     66 b_26                        1                       1
     75 b_35                        1                       1
